p cnf 15 41
-11 0
-5 3 -14 0
-8 -7 -13 0
7 2 -12 0
-1 -12 -2 0
12 -14 -8 0
-7 -5 -9 0
-7 -2 -4 0
12 -4 10 0
-3 -8 -12 0
-7 -1 2 0
-9 -8 -13 0
9 -3 14 0
8 -6 -13 0
-10 -4 9 0
5 -3 9 0
-13 -4 3 0
-6 -4 1 0
12 -6 -3 0
-8 -12 -2 0
10 -1 -5 0
-6 4 -12 0
-6 3 2 0
-8 13 -6 0
-2 -14 -4 0
8 -7 2 0
-14 -5 13 0
5 2 -10 0
-7 14 -4 0
-7 15 14 0
14 -8 12 0
13 2 -9 0
5 -15 -14 0
-12 -7 -5 0
2 10 -5 0
-13 -1 -5 0
-12 -14 6 0
5 -8 -1 0
14 -3 -8 0
-13 2 -10 0
-2 -13 -6 0
